container_length = 3500;
container_width = 2400;
container_height = 1300;
n = 8;
boxes = [|400, 375, 250, 34
          400, 275, 225, 37
          300, 250, 125, 23
          500, 450, 225, 27
          1500, 275, 200, 25
          600, 400, 300, 23
          900, 200, 200, 14
          700, 350, 300, 17|];
